70
1 0 2
2 0 7
2 1 3
3 0 10
3 1 5
3 2 3
4 0 8
4 1 3
4 2 9
4 3 1
5 0 4
5 1 9
5 2 3
5 3 6
5 4 3
6 0 7
6 1 4
6 2 1
6 3 7
6 4 1
6 5 8
7 0 3
7 1 3
7 2 6
7 3 6
7 4 1
7 5 1
7 6 3
8 0 4
8 1 8
8 2 3
8 3 2
8 4 8
8 5 7
8 6 5
8 7 6
9 0 6
9 1 6
9 2 3
9 3 5
9 4 3
9 5 9
9 6 2
9 7 5
9 8 10
10 0 5
10 1 8
10 2 1
10 3 5
10 4 7
10 5 6
10 6 4
10 7 8
10 8 8
10 9 4
11 0 2
11 1 5
11 2 8
11 3 10
11 4 2
11 5 5
11 6 7
11 7 8
11 8 5
11 9 2
11 10 9
12 0 7
12 1 3
12 2 6
12 3 2
12 4 2
12 5 5
12 6 10
12 7 3
12 8 8
12 9 2
12 10 3
12 11 1
13 0 6
13 1 5
13 2 8
13 3 5
13 4 6
13 5 5
13 6 5
13 7 9
13 8 8
13 9 6
13 10 10
13 11 4
13 12 4
14 0 6
14 1 9
14 2 10
14 3 10
14 4 7
14 5 4
14 6 2
14 7 1
14 8 7
14 9 8
14 10 3
14 11 3
14 12 4
14 13 2
15 0 5
15 1 9
15 2 10
15 3 6
15 4 7
15 5 8
15 6 5
15 7 8
15 8 5
15 9 5
15 10 9
15 11 1
15 12 8
15 13 5
15 14 7
16 0 2
16 1 4
16 2 1
16 3 6
16 4 6
16 5 4
16 6 9
16 7 9
16 8 8
16 9 1
16 10 9
16 11 9
16 12 10
16 13 9
16 14 4
16 15 3
17 0 2
17 1 7
17 2 10
17 3 10
17 4 8
17 5 4
17 6 2
17 7 10
17 8 8
17 9 8
17 10 10
17 11 1
17 12 3
17 13 4
17 14 3
17 15 10
17 16 5
18 0 4
18 1 2
18 2 7
18 3 10
18 4 3
18 5 8
18 6 4
18 7 1
18 8 8
18 9 10
18 10 8
18 11 3
18 12 2
18 13 4
18 14 2
18 15 1
18 16 6
18 17 10
19 0 9
19 1 4
19 2 1
19 3 1
19 4 2
19 5 10
19 6 1
19 7 2
19 8 9
19 9 3
19 10 5
19 11 1
19 12 8
19 13 7
19 14 7
19 15 7
19 16 2
19 17 10
19 18 4
20 0 1
20 1 5
20 2 3
20 3 1
20 4 9
20 5 1
20 6 4
20 7 3
20 8 6
20 9 1
20 10 6
20 11 7
20 12 9
20 13 6
20 14 10
20 15 1
20 16 7
20 17 6
20 18 1
20 19 10
21 0 4
21 1 2
21 2 7
21 3 4
21 4 5
21 5 7
21 6 5
21 7 7
21 8 1
21 9 4
21 10 7
21 11 6
21 12 1
21 13 5
21 14 6
21 15 2
21 16 6
21 17 2
21 18 2
21 19 2
21 20 8
22 0 9
22 1 2
22 2 9
22 3 2
22 4 6
22 5 7
22 6 4
22 7 5
22 8 8
22 9 7
22 10 6
22 11 8
22 12 6
22 13 10
22 14 10
22 15 1
22 16 4
22 17 9
22 18 4
22 19 10
22 20 4
22 21 3
23 0 9
23 1 5
23 2 4
23 3 2
23 4 6
23 5 7
23 6 3
23 7 6
23 8 6
23 9 9
23 10 8
23 11 8
23 12 7
23 13 7
23 14 2
23 15 6
23 16 9
23 17 5
23 18 5
23 19 6
23 20 7
23 21 3
23 22 6
24 0 2
24 1 9
24 2 7
24 3 2
24 4 8
24 5 4
24 6 4
24 7 10
24 8 3
24 9 6
24 10 3
24 11 2
24 12 1
24 13 10
24 14 10
24 15 10
24 16 8
24 17 1
24 18 8
24 19 2
24 20 8
24 21 8
24 22 10
24 23 8
25 0 7
25 1 3
25 2 2
25 3 3
25 4 2
25 5 3
25 6 10
25 7 8
25 8 10
25 9 7
25 10 1
25 11 5
25 12 1
25 13 10
25 14 10
25 15 4
25 16 10
25 17 6
25 18 9
25 19 3
25 20 5
25 21 4
25 22 8
25 23 4
25 24 8
26 0 4
26 1 5
26 2 5
26 3 9
26 4 3
26 5 9
26 6 2
26 7 3
26 8 1
26 9 9
26 10 7
26 11 10
26 12 2
26 13 4
26 14 10
26 15 3
26 16 6
26 17 4
26 18 3
26 19 2
26 20 9
26 21 8
26 22 6
26 23 7
26 24 2
26 25 8
27 0 9
27 1 10
27 2 7
27 3 2
27 4 9
27 5 5
27 6 2
27 7 8
27 8 8
27 9 10
27 10 3
27 11 10
27 12 5
27 13 2
27 14 2
27 15 5
27 16 10
27 17 2
27 18 10
27 19 8
27 20 8
27 21 6
27 22 6
27 23 9
27 24 1
27 25 6
27 26 9
28 0 2
28 1 8
28 2 6
28 3 9
28 4 5
28 5 3
28 6 2
28 7 10
28 8 9
28 9 5
28 10 7
28 11 3
28 12 6
28 13 2
28 14 3
28 15 1
28 16 8
28 17 8
28 18 3
28 19 1
28 20 7
28 21 2
28 22 5
28 23 6
28 24 10
28 25 2
28 26 3
28 27 3
29 0 4
29 1 1
29 2 1
29 3 7
29 4 10
29 5 9
29 6 6
29 7 4
29 8 8
29 9 8
29 10 1
29 11 9
29 12 10
29 13 9
29 14 9
29 15 9
29 16 3
29 17 6
29 18 10
29 19 9
29 20 4
29 21 4
29 22 9
29 23 5
29 24 1
29 25 7
29 26 2
29 27 2
29 28 1
30 0 7
30 1 4
30 2 10
30 3 8
30 4 9
30 5 2
30 6 4
30 7 10
30 8 4
30 9 10
30 10 6
30 11 10
30 12 2
30 13 3
30 14 2
30 15 9
30 16 2
30 17 1
30 18 4
30 19 8
30 20 3
30 21 1
30 22 8
30 23 6
30 24 3
30 25 1
30 26 9
30 27 4
30 28 5
30 29 1
31 0 7
31 1 8
31 2 10
31 3 5
31 4 9
31 5 10
31 6 3
31 7 7
31 8 8
31 9 1
31 10 6
31 11 9
31 12 4
31 13 7
31 14 2
31 15 6
31 16 10
31 17 7
31 18 4
31 19 9
31 20 2
31 21 8
31 22 4
31 23 8
31 24 6
31 25 6
31 26 7
31 27 3
31 28 4
31 29 8
31 30 10
32 0 3
32 1 9
32 2 9
32 3 10
32 4 6
32 5 10
32 6 10
32 7 6
32 8 8
32 9 3
32 10 2
32 11 3
32 12 7
32 13 5
32 14 6
32 15 1
32 16 4
32 17 2
32 18 2
32 19 5
32 20 2
32 21 7
32 22 4
32 23 3
32 24 9
32 25 10
32 26 2
32 27 10
32 28 4
32 29 7
32 30 3
32 31 10
33 0 1
33 1 7
33 2 3
33 3 6
33 4 1
33 5 2
33 6 6
33 7 10
33 8 9
33 9 6
33 10 10
33 11 7
33 12 3
33 13 5
33 14 6
33 15 5
33 16 1
33 17 2
33 18 7
33 19 9
33 20 4
33 21 6
33 22 10
33 23 6
33 24 8
33 25 1
33 26 5
33 27 8
33 28 7
33 29 1
33 30 5
33 31 3
33 32 1
34 0 4
34 1 1
34 2 10
34 3 7
34 4 9
34 5 5
34 6 8
34 7 6
34 8 6
34 9 2
34 10 5
34 11 6
34 12 8
34 13 7
34 14 8
34 15 3
34 16 9
34 17 1
34 18 4
34 19 10
34 20 10
34 21 1
34 22 6
34 23 6
34 24 7
34 25 7
34 26 10
34 27 4
34 28 3
34 29 4
34 30 9
34 31 9
34 32 9
34 33 3
35 0 9
35 1 3
35 2 10
35 3 1
35 4 5
35 5 4
35 6 6
35 7 10
35 8 4
35 9 10
35 10 2
35 11 8
35 12 2
35 13 5
35 14 10
35 15 9
35 16 7
35 17 6
35 18 9
35 19 6
35 20 4
35 21 9
35 22 7
35 23 3
35 24 9
35 25 1
35 26 4
35 27 4
35 28 9
35 29 10
35 30 8
35 31 8
35 32 2
35 33 8
35 34 8
36 0 3
36 1 1
36 2 10
36 3 9
36 4 3
36 5 7
36 6 5
36 7 3
36 8 5
36 9 6
36 10 3
36 11 2
36 12 6
36 13 6
36 14 10
36 15 8
36 16 4
36 17 3
36 18 7
36 19 7
36 20 9
36 21 4
36 22 3
36 23 6
36 24 3
36 25 2
36 26 9
36 27 1
36 28 2
36 29 3
36 30 1
36 31 2
36 32 7
36 33 8
36 34 6
36 35 8
37 0 5
37 1 2
37 2 6
37 3 10
37 4 4
37 5 7
37 6 10
37 7 7
37 8 2
37 9 10
37 10 8
37 11 1
37 12 3
37 13 4
37 14 3
37 15 1
37 16 9
37 17 6
37 18 5
37 19 5
37 20 10
37 21 6
37 22 8
37 23 8
37 24 9
37 25 3
37 26 2
37 27 10
37 28 2
37 29 10
37 30 6
37 31 7
37 32 3
37 33 3
37 34 3
37 35 6
37 36 4
38 0 4
38 1 8
38 2 9
38 3 7
38 4 1
38 5 5
38 6 2
38 7 1
38 8 1
38 9 2
38 10 9
38 11 6
38 12 5
38 13 9
38 14 4
38 15 6
38 16 6
38 17 7
38 18 6
38 19 9
38 20 8
38 21 6
38 22 5
38 23 10
38 24 1
38 25 6
38 26 4
38 27 8
38 28 8
38 29 5
38 30 6
38 31 4
38 32 5
38 33 4
38 34 2
38 35 1
38 36 6
38 37 5
39 0 2
39 1 2
39 2 1
39 3 1
39 4 7
39 5 2
39 6 7
39 7 5
39 8 8
39 9 9
39 10 4
39 11 1
39 12 10
39 13 6
39 14 1
39 15 7
39 16 8
39 17 6
39 18 7
39 19 3
39 20 1
39 21 5
39 22 5
39 23 8
39 24 8
39 25 5
39 26 6
39 27 1
39 28 10
39 29 6
39 30 1
39 31 6
39 32 4
39 33 9
39 34 2
39 35 7
39 36 3
39 37 4
39 38 3
40 0 10
40 1 1
40 2 2
40 3 7
40 4 10
40 5 8
40 6 8
40 7 2
40 8 6
40 9 10
40 10 7
40 11 10
40 12 3
40 13 10
40 14 8
40 15 9
40 16 4
40 17 9
40 18 1
40 19 1
40 20 6
40 21 10
40 22 9
40 23 4
40 24 3
40 25 2
40 26 10
40 27 5
40 28 5
40 29 3
40 30 7
40 31 8
40 32 7
40 33 3
40 34 10
40 35 6
40 36 10
40 37 4
40 38 7
40 39 2
41 0 7
41 1 2
41 2 10
41 3 5
41 4 2
41 5 4
41 6 2
41 7 2
41 8 1
41 9 7
41 10 10
41 11 10
41 12 1
41 13 9
41 14 9
41 15 3
41 16 8
41 17 10
41 18 8
41 19 9
41 20 9
41 21 1
41 22 8
41 23 9
41 24 1
41 25 2
41 26 9
41 27 8
41 28 7
41 29 4
41 30 8
41 31 7
41 32 10
41 33 3
41 34 1
41 35 8
41 36 4
41 37 5
41 38 2
41 39 9
41 40 8
42 0 8
42 1 3
42 2 10
42 3 10
42 4 9
42 5 9
42 6 2
42 7 3
42 8 4
42 9 1
42 10 4
42 11 4
42 12 6
42 13 2
42 14 8
42 15 3
42 16 2
42 17 2
42 18 9
42 19 2
42 20 10
42 21 6
42 22 8
42 23 8
42 24 7
42 25 5
42 26 6
42 27 8
42 28 4
42 29 10
42 30 10
42 31 1
42 32 6
42 33 9
42 34 2
42 35 8
42 36 7
42 37 6
42 38 6
42 39 5
42 40 6
42 41 8
43 0 6
43 1 5
43 2 4
43 3 4
43 4 5
43 5 6
43 6 10
43 7 4
43 8 1
43 9 7
43 10 1
43 11 5
43 12 1
43 13 5
43 14 5
43 15 6
43 16 8
43 17 1
43 18 10
43 19 9
43 20 9
43 21 6
43 22 3
43 23 1
43 24 9
43 25 3
43 26 1
43 27 7
43 28 4
43 29 3
43 30 1
43 31 2
43 32 1
43 33 9
43 34 5
43 35 1
43 36 1
43 37 4
43 38 1
43 39 8
43 40 1
43 41 2
43 42 1
44 0 1
44 1 7
44 2 10
44 3 3
44 4 4
44 5 1
44 6 5
44 7 8
44 8 4
44 9 2
44 10 1
44 11 6
44 12 6
44 13 1
44 14 1
44 15 6
44 16 8
44 17 3
44 18 7
44 19 4
44 20 8
44 21 9
44 22 4
44 23 4
44 24 4
44 25 9
44 26 4
44 27 8
44 28 8
44 29 3
44 30 9
44 31 1
44 32 7
44 33 9
44 34 10
44 35 2
44 36 2
44 37 1
44 38 6
44 39 1
44 40 10
44 41 5
44 42 3
44 43 7
45 0 3
45 1 4
45 2 7
45 3 5
45 4 1
45 5 4
45 6 6
45 7 3
45 8 10
45 9 8
45 10 2
45 11 6
45 12 10
45 13 7
45 14 10
45 15 1
45 16 2
45 17 4
45 18 8
45 19 3
45 20 5
45 21 1
45 22 1
45 23 3
45 24 3
45 25 10
45 26 3
45 27 3
45 28 4
45 29 8
45 30 10
45 31 4
45 32 7
45 33 2
45 34 5
45 35 5
45 36 9
45 37 2
45 38 1
45 39 6
45 40 1
45 41 6
45 42 9
45 43 3
45 44 10
46 0 3
46 1 7
46 2 7
46 3 1
46 4 3
46 5 6
46 6 4
46 7 1
46 8 1
46 9 9
46 10 4
46 11 1
46 12 9
46 13 7
46 14 5
46 15 8
46 16 6
46 17 9
46 18 4
46 19 10
46 20 2
46 21 6
46 22 10
46 23 5
46 24 4
46 25 7
46 26 9
46 27 4
46 28 10
46 29 3
46 30 3
46 31 10
46 32 9
46 33 8
46 34 6
46 35 2
46 36 3
46 37 7
46 38 2
46 39 9
46 40 3
46 41 8
46 42 1
46 43 2
46 44 2
46 45 2
47 0 1
47 1 6
47 2 6
47 3 2
47 4 1
47 5 6
47 6 6
47 7 6
47 8 6
47 9 5
47 10 2
47 11 10
47 12 7
47 13 8
47 14 5
47 15 1
47 16 6
47 17 4
47 18 6
47 19 10
47 20 6
47 21 8
47 22 5
47 23 10
47 24 6
47 25 6
47 26 3
47 27 9
47 28 10
47 29 7
47 30 9
47 31 1
47 32 5
47 33 6
47 34 10
47 35 9
47 36 8
47 37 8
47 38 9
47 39 8
47 40 4
47 41 1
47 42 6
47 43 10
47 44 3
47 45 10
47 46 2
48 0 2
48 1 1
48 2 4
48 3 6
48 4 1
48 5 4
48 6 6
48 7 4
48 8 1
48 9 6
48 10 4
48 11 5
48 12 7
48 13 7
48 14 5
48 15 4
48 16 6
48 17 4
48 18 4
48 19 1
48 20 7
48 21 8
48 22 10
48 23 8
48 24 8
48 25 6
48 26 6
48 27 8
48 28 4
48 29 5
48 30 2
48 31 8
48 32 3
48 33 6
48 34 6
48 35 8
48 36 1
48 37 4
48 38 4
48 39 2
48 40 6
48 41 1
48 42 7
48 43 9
48 44 4
48 45 9
48 46 9
48 47 4
49 0 9
49 1 6
49 2 9
49 3 2
49 4 6
49 5 5
49 6 8
49 7 3
49 8 6
49 9 7
49 10 8
49 11 8
49 12 3
49 13 8
49 14 1
49 15 4
49 16 9
49 17 5
49 18 1
49 19 10
49 20 5
49 21 6
49 22 5
49 23 9
49 24 7
49 25 7
49 26 2
49 27 1
49 28 5
49 29 6
49 30 7
49 31 6
49 32 9
49 33 3
49 34 8
49 35 5
49 36 10
49 37 10
49 38 10
49 39 1
49 40 4
49 41 8
49 42 4
49 43 7
49 44 1
49 45 1
49 46 8
49 47 7
49 48 4
50 0 9
50 1 5
50 2 7
50 3 10
50 4 7
50 5 10
50 6 3
50 7 8
50 8 9
50 9 6
50 10 6
50 11 9
50 12 8
50 13 9
50 14 9
50 15 3
50 16 4
50 17 5
50 18 5
50 19 6
50 20 2
50 21 5
50 22 2
50 23 5
50 24 4
50 25 4
50 26 9
50 27 6
50 28 5
50 29 5
50 30 4
50 31 5
50 32 3
50 33 4
50 34 10
50 35 9
50 36 9
50 37 2
50 38 10
50 39 1
50 40 6
50 41 6
50 42 8
50 43 5
50 44 8
50 45 9
50 46 2
50 47 1
50 48 6
50 49 4
51 0 9
51 1 3
51 2 8
51 3 2
51 4 1
51 5 4
51 6 5
51 7 4
51 8 9
51 9 5
51 10 7
51 11 9
51 12 6
51 13 8
51 14 9
51 15 9
51 16 4
51 17 2
51 18 3
51 19 2
51 20 8
51 21 2
51 22 7
51 23 9
51 24 8
51 25 7
51 26 8
51 27 1
51 28 3
51 29 10
51 30 10
51 31 2
51 32 5
51 33 1
51 34 9
51 35 7
51 36 4
51 37 4
51 38 3
51 39 3
51 40 3
51 41 9
51 42 1
51 43 6
51 44 4
51 45 10
51 46 10
51 47 10
51 48 9
51 49 2
51 50 10
52 0 1
52 1 3
52 2 3
52 3 9
52 4 8
52 5 10
52 6 4
52 7 8
52 8 3
52 9 8
52 10 1
52 11 9
52 12 4
52 13 7
52 14 1
52 15 1
52 16 7
52 17 10
52 18 8
52 19 10
52 20 3
52 21 8
52 22 6
52 23 8
52 24 2
52 25 10
52 26 4
52 27 3
52 28 6
52 29 7
52 30 2
52 31 7
52 32 5
52 33 3
52 34 6
52 35 9
52 36 5
52 37 7
52 38 9
52 39 6
52 40 6
52 41 1
52 42 7
52 43 10
52 44 8
52 45 3
52 46 10
52 47 5
52 48 2
52 49 7
52 50 6
52 51 9
53 0 9
53 1 7
53 2 5
53 3 3
53 4 3
53 5 5
53 6 4
53 7 6
53 8 7
53 9 3
53 10 3
53 11 4
53 12 10
53 13 8
53 14 10
53 15 2
53 16 9
53 17 5
53 18 2
53 19 8
53 20 7
53 21 9
53 22 2
53 23 6
53 24 7
53 25 5
53 26 7
53 27 3
53 28 1
53 29 6
53 30 5
53 31 6
53 32 3
53 33 2
53 34 1
53 35 4
53 36 3
53 37 7
53 38 6
53 39 8
53 40 1
53 41 4
53 42 2
53 43 1
53 44 2
53 45 1
53 46 8
53 47 7
53 48 2
53 49 9
53 50 10
53 51 4
53 52 4
54 0 9
54 1 5
54 2 1
54 3 6
54 4 9
54 5 6
54 6 1
54 7 6
54 8 1
54 9 8
54 10 10
54 11 1
54 12 3
54 13 8
54 14 3
54 15 2
54 16 3
54 17 7
54 18 7
54 19 1
54 20 5
54 21 5
54 22 7
54 23 7
54 24 6
54 25 3
54 26 2
54 27 3
54 28 1
54 29 5
54 30 10
54 31 8
54 32 9
54 33 10
54 34 10
54 35 10
54 36 3
54 37 7
54 38 4
54 39 3
54 40 10
54 41 3
54 42 2
54 43 5
54 44 3
54 45 5
54 46 3
54 47 9
54 48 6
54 49 2
54 50 2
54 51 9
54 52 3
54 53 4
55 0 8
55 1 1
55 2 5
55 3 8
55 4 8
55 5 2
55 6 5
55 7 9
55 8 7
55 9 10
55 10 1
55 11 4
55 12 2
55 13 7
55 14 6
55 15 7
55 16 10
55 17 4
55 18 4
55 19 10
55 20 9
55 21 8
55 22 3
55 23 6
55 24 1
55 25 5
55 26 3
55 27 7
55 28 5
55 29 10
55 30 2
55 31 3
55 32 10
55 33 5
55 34 1
55 35 2
55 36 10
55 37 2
55 38 8
55 39 3
55 40 8
55 41 2
55 42 10
55 43 1
55 44 2
55 45 4
55 46 9
55 47 7
55 48 2
55 49 9
55 50 2
55 51 6
55 52 3
55 53 6
55 54 5
56 0 9
56 1 10
56 2 7
56 3 7
56 4 6
56 5 2
56 6 4
56 7 3
56 8 3
56 9 1
56 10 8
56 11 4
56 12 7
56 13 7
56 14 10
56 15 5
56 16 6
56 17 7
56 18 4
56 19 3
56 20 3
56 21 8
56 22 6
56 23 2
56 24 9
56 25 5
56 26 2
56 27 6
56 28 6
56 29 1
56 30 5
56 31 7
56 32 5
56 33 7
56 34 7
56 35 3
56 36 6
56 37 8
56 38 5
56 39 6
56 40 7
56 41 7
56 42 6
56 43 2
56 44 3
56 45 9
56 46 10
56 47 5
56 48 9
56 49 3
56 50 4
56 51 5
56 52 7
56 53 2
56 54 7
56 55 10
57 0 1
57 1 10
57 2 6
57 3 4
57 4 9
57 5 6
57 6 4
57 7 6
57 8 9
57 9 1
57 10 7
57 11 1
57 12 5
57 13 7
57 14 9
57 15 2
57 16 9
57 17 8
57 18 7
57 19 6
57 20 5
57 21 7
57 22 8
57 23 2
57 24 2
57 25 1
57 26 7
57 27 4
57 28 6
57 29 6
57 30 8
57 31 2
57 32 1
57 33 2
57 34 5
57 35 6
57 36 3
57 37 10
57 38 7
57 39 3
57 40 7
57 41 4
57 42 3
57 43 1
57 44 3
57 45 7
57 46 4
57 47 2
57 48 6
57 49 7
57 50 6
57 51 7
57 52 6
57 53 2
57 54 9
57 55 3
57 56 1
58 0 10
58 1 4
58 2 5
58 3 9
58 4 5
58 5 4
58 6 8
58 7 8
58 8 7
58 9 10
58 10 6
58 11 5
58 12 3
58 13 10
58 14 8
58 15 2
58 16 2
58 17 9
58 18 4
58 19 4
58 20 8
58 21 7
58 22 6
58 23 4
58 24 9
58 25 7
58 26 7
58 27 7
58 28 6
58 29 5
58 30 8
58 31 6
58 32 1
58 33 3
58 34 10
58 35 6
58 36 5
58 37 9
58 38 8
58 39 9
58 40 8
58 41 9
58 42 6
58 43 2
58 44 10
58 45 4
58 46 10
58 47 1
58 48 8
58 49 1
58 50 10
58 51 7
58 52 2
58 53 5
58 54 1
58 55 8
58 56 2
58 57 1
59 0 2
59 1 9
59 2 6
59 3 4
59 4 5
59 5 1
59 6 10
59 7 5
59 8 9
59 9 1
59 10 9
59 11 8
59 12 4
59 13 3
59 14 8
59 15 7
59 16 2
59 17 7
59 18 1
59 19 8
59 20 5
59 21 7
59 22 6
59 23 2
59 24 9
59 25 1
59 26 4
59 27 7
59 28 3
59 29 2
59 30 1
59 31 6
59 32 10
59 33 7
59 34 9
59 35 1
59 36 7
59 37 6
59 38 3
59 39 3
59 40 8
59 41 1
59 42 8
59 43 9
59 44 2
59 45 4
59 46 10
59 47 6
59 48 6
59 49 9
59 50 2
59 51 5
59 52 1
59 53 2
59 54 8
59 55 6
59 56 9
59 57 7
59 58 7
60 0 4
60 1 1
60 2 8
60 3 7
60 4 2
60 5 1
60 6 4
60 7 8
60 8 7
60 9 3
60 10 7
60 11 7
60 12 4
60 13 7
60 14 2
60 15 5
60 16 5
60 17 3
60 18 5
60 19 8
60 20 2
60 21 1
60 22 3
60 23 1
60 24 4
60 25 8
60 26 4
60 27 5
60 28 9
60 29 5
60 30 8
60 31 6
60 32 9
60 33 10
60 34 2
60 35 2
60 36 8
60 37 5
60 38 9
60 39 10
60 40 5
60 41 3
60 42 9
60 43 10
60 44 7
60 45 1
60 46 10
60 47 3
60 48 7
60 49 9
60 50 2
60 51 6
60 52 2
60 53 7
60 54 10
60 55 10
60 56 6
60 57 2
60 58 5
60 59 3
61 0 8
61 1 5
61 2 3
61 3 2
61 4 8
61 5 10
61 6 9
61 7 2
61 8 1
61 9 4
61 10 3
61 11 8
61 12 3
61 13 2
61 14 9
61 15 5
61 16 9
61 17 8
61 18 1
61 19 6
61 20 10
61 21 2
61 22 10
61 23 2
61 24 1
61 25 9
61 26 4
61 27 10
61 28 8
61 29 6
61 30 6
61 31 6
61 32 1
61 33 8
61 34 3
61 35 6
61 36 2
61 37 4
61 38 5
61 39 6
61 40 4
61 41 3
61 42 10
61 43 8
61 44 9
61 45 4
61 46 2
61 47 7
61 48 10
61 49 7
61 50 7
61 51 9
61 52 5
61 53 6
61 54 6
61 55 8
61 56 10
61 57 9
61 58 10
61 59 5
61 60 3
62 0 6
62 1 7
62 2 9
62 3 3
62 4 2
62 5 4
62 6 3
62 7 8
62 8 5
62 9 2
62 10 1
62 11 10
62 12 2
62 13 10
62 14 8
62 15 5
62 16 6
62 17 3
62 18 5
62 19 6
62 20 8
62 21 9
62 22 2
62 23 3
62 24 2
62 25 9
62 26 7
62 27 6
62 28 5
62 29 6
62 30 7
62 31 1
62 32 7
62 33 5
62 34 6
62 35 1
62 36 1
62 37 10
62 38 6
62 39 5
62 40 1
62 41 4
62 42 7
62 43 3
62 44 10
62 45 9
62 46 9
62 47 1
62 48 4
62 49 1
62 50 7
62 51 2
62 52 5
62 53 3
62 54 8
62 55 4
62 56 2
62 57 2
62 58 7
62 59 3
62 60 6
62 61 2
63 0 8
63 1 7
63 2 2
63 3 6
63 4 9
63 5 4
63 6 8
63 7 9
63 8 1
63 9 2
63 10 5
63 11 7
63 12 10
63 13 6
63 14 10
63 15 7
63 16 2
63 17 9
63 18 2
63 19 7
63 20 2
63 21 9
63 22 5
63 23 10
63 24 1
63 25 2
63 26 1
63 27 10
63 28 4
63 29 4
63 30 6
63 31 6
63 32 6
63 33 9
63 34 10
63 35 10
63 36 6
63 37 4
63 38 3
63 39 6
63 40 9
63 41 2
63 42 6
63 43 7
63 44 8
63 45 1
63 46 2
63 47 2
63 48 7
63 49 5
63 50 3
63 51 1
63 52 6
63 53 4
63 54 10
63 55 7
63 56 6
63 57 9
63 58 7
63 59 5
63 60 6
63 61 2
63 62 9
64 0 7
64 1 9
64 2 8
64 3 1
64 4 3
64 5 4
64 6 9
64 7 1
64 8 7
64 9 3
64 10 8
64 11 6
64 12 1
64 13 2
64 14 6
64 15 5
64 16 2
64 17 5
64 18 7
64 19 7
64 20 5
64 21 7
64 22 9
64 23 5
64 24 3
64 25 9
64 26 1
64 27 7
64 28 2
64 29 9
64 30 6
64 31 2
64 32 9
64 33 7
64 34 8
64 35 6
64 36 5
64 37 1
64 38 3
64 39 9
64 40 3
64 41 8
64 42 1
64 43 7
64 44 3
64 45 2
64 46 9
64 47 9
64 48 2
64 49 2
64 50 8
64 51 8
64 52 7
64 53 7
64 54 10
64 55 3
64 56 8
64 57 3
64 58 7
64 59 7
64 60 2
64 61 9
64 62 2
64 63 10
65 0 7
65 1 8
65 2 3
65 3 1
65 4 1
65 5 3
65 6 2
65 7 2
65 8 6
65 9 1
65 10 10
65 11 6
65 12 9
65 13 1
65 14 10
65 15 8
65 16 1
65 17 4
65 18 6
65 19 7
65 20 6
65 21 6
65 22 7
65 23 2
65 24 5
65 25 1
65 26 9
65 27 2
65 28 6
65 29 6
65 30 9
65 31 10
65 32 9
65 33 2
65 34 8
65 35 2
65 36 3
65 37 6
65 38 4
65 39 4
65 40 9
65 41 9
65 42 5
65 43 8
65 44 7
65 45 8
65 46 8
65 47 4
65 48 7
65 49 1
65 50 5
65 51 10
65 52 3
65 53 7
65 54 1
65 55 5
65 56 7
65 57 1
65 58 3
65 59 6
65 60 9
65 61 1
65 62 2
65 63 3
65 64 9
66 0 5
66 1 7
66 2 8
66 3 2
66 4 2
66 5 1
66 6 2
66 7 6
66 8 5
66 9 7
66 10 10
66 11 4
66 12 5
66 13 1
66 14 3
66 15 2
66 16 10
66 17 10
66 18 4
66 19 1
66 20 10
66 21 3
66 22 10
66 23 8
66 24 9
66 25 3
66 26 8
66 27 2
66 28 6
66 29 1
66 30 1
66 31 7
66 32 10
66 33 3
66 34 7
66 35 2
66 36 10
66 37 3
66 38 3
66 39 7
66 40 5
66 41 8
66 42 6
66 43 3
66 44 6
66 45 5
66 46 5
66 47 1
66 48 9
66 49 3
66 50 8
66 51 2
66 52 7
66 53 7
66 54 5
66 55 8
66 56 4
66 57 6
66 58 3
66 59 4
66 60 10
66 61 6
66 62 10
66 63 4
66 64 8
66 65 4
67 0 8
67 1 2
67 2 4
67 3 3
67 4 6
67 5 4
67 6 8
67 7 10
67 8 7
67 9 9
67 10 7
67 11 3
67 12 4
67 13 3
67 14 3
67 15 4
67 16 6
67 17 7
67 18 3
67 19 3
67 20 2
67 21 6
67 22 3
67 23 7
67 24 2
67 25 2
67 26 4
67 27 9
67 28 3
67 29 5
67 30 3
67 31 7
67 32 4
67 33 7
67 34 4
67 35 9
67 36 6
67 37 4
67 38 2
67 39 2
67 40 4
67 41 1
67 42 5
67 43 3
67 44 7
67 45 7
67 46 7
67 47 7
67 48 7
67 49 6
67 50 5
67 51 3
67 52 3
67 53 8
67 54 3
67 55 7
67 56 8
67 57 2
67 58 4
67 59 3
67 60 5
67 61 5
67 62 5
67 63 4
67 64 3
67 65 10
67 66 10
68 0 9
68 1 8
68 2 10
68 3 10
68 4 4
68 5 1
68 6 2
68 7 4
68 8 1
68 9 2
68 10 5
68 11 8
68 12 4
68 13 4
68 14 5
68 15 9
68 16 3
68 17 10
68 18 6
68 19 4
68 20 8
68 21 9
68 22 7
68 23 3
68 24 1
68 25 7
68 26 1
68 27 7
68 28 9
68 29 1
68 30 10
68 31 1
68 32 8
68 33 2
68 34 1
68 35 8
68 36 9
68 37 8
68 38 3
68 39 10
68 40 4
68 41 6
68 42 9
68 43 2
68 44 6
68 45 6
68 46 8
68 47 2
68 48 8
68 49 5
68 50 5
68 51 7
68 52 7
68 53 4
68 54 5
68 55 1
68 56 4
68 57 2
68 58 10
68 59 4
68 60 4
68 61 6
68 62 4
68 63 10
68 64 6
68 65 6
68 66 1
68 67 6
69 0 9
69 1 10
69 2 10
69 3 4
69 4 4
69 5 7
69 6 9
69 7 8
69 8 4
69 9 10
69 10 10
69 11 1
69 12 7
69 13 7
69 14 5
69 15 7
69 16 5
69 17 3
69 18 10
69 19 2
69 20 2
69 21 3
69 22 5
69 23 4
69 24 1
69 25 6
69 26 1
69 27 8
69 28 9
69 29 2
69 30 7
69 31 8
69 32 9
69 33 2
69 34 5
69 35 7
69 36 4
69 37 2
69 38 3
69 39 10
69 40 4
69 41 1
69 42 6
69 43 7
69 44 5
69 45 1
69 46 10
69 47 4
69 48 8
69 49 5
69 50 8
69 51 3
69 52 10
69 53 5
69 54 9
69 55 3
69 56 2
69 57 8
69 58 6
69 59 10
69 60 7
69 61 7
69 62 7
69 63 7
69 64 10
69 65 6
69 66 9
69 67 3
69 68 2
